Instance: E241-22k.dat
Class:  1
240 --- number of customers (no depot)
22 --- number of vehicles
240 --- number of items
Capacity - height - width of vehicles
   200     40     20
Node - x - y - demand  Readytime Duetime
  0.00    0.00   0.00   0.00 0       234.00
  1.00    5.80   0.00  40.00  14.00   40.00
  2.00    2.90   5.00  40.00  52.00   75.00
  3.00   -2.90   5.00  40.00 151.00  170.00
  4.00   -5.80   0.00  40.00  87.00  112.00
  5.00   -2.90  -5.00  40.00  45.00   71.00
  6.00    2.90  -5.00  40.00  92.00  108.00
  7.00    8.70   5.00  40.00  22.00   45.00
  8.00    0.00  10.00  40.00 166.00  192.00
  9.00   -8.70   5.00  40.00 116.00  144.00
 10.00   -8.70  -5.00  40.00 163.00  185.00
 11.00    0.00 -10.00  40.00 175.00  205.00
 12.00    8.70  -5.00  40.00 126.00  144.00
 13.00    5.30   0.80  10.00 128.00  149.00
 14.00    3.30   4.30  10.00 169.00  198.00
 15.00    6.50  -1.30  10.00 168.00  185.00
 16.00    7.20  -2.50  20.00  39.00   66.00
 17.00    7.90  -3.80  10.00  61.00   77.00
 18.00    6.50   1.30  10.00 119.00  136.00
 19.00    7.20   2.50  20.00  64.00   90.00
 20.00    7.90   3.80  10.00  55.00   75.00
 21.00    2.00   5.00  10.00 139.00  158.00
 22.00   -2.00   5.00  10.00 168.00  186.00
 23.00    4.30   5.00  10.00 145.00  169.00
 24.00    5.80   5.00  20.00 122.00  150.00
 25.00    7.20   5.00  10.00 122.00  148.00
 26.00    2.20   6.30  10.00  31.00   61.00
 27.00    1.40   7.50  20.00  60.00   90.00
 28.00    0.70   8.80  10.00 112.00  132.00
 29.00   -3.30   4.30  10.00  86.00  116.00
 30.00   -5.30   0.80  10.00  85.00  106.00
 31.00   -2.20   6.30  10.00  48.00   67.00
 32.00   -1.40   7.50  20.00  21.00   44.00
 33.00   -0.70   8.80  10.00 189.00  205.00
 34.00   -4.30   5.00  10.00   5.00   32.00
 35.00   -5.80   5.00  20.00  40.00   64.00
 36.00   -7.20   5.00  10.00 184.00  200.00
 37.00   -5.30  -0.80  10.00  67.00   89.00
 38.00   -3.30  -4.30  10.00 107.00  126.00
 39.00   -6.50   1.30  10.00 112.00  139.00
 40.00   -7.20   2.50  20.00 171.00  195.00
 41.00   -7.90   3.80  10.00  94.00  113.00
 42.00   -6.50  -1.30  10.00  72.00   98.00
 43.00   -7.20  -2.50  20.00  97.00  121.00
 44.00   -7.90  -3.80  10.00   6.00   32.00
 45.00   -2.00  -5.00  10.00 112.00  137.00
 46.00    2.00  -5.00  10.00  22.00   47.00
 47.00   -4.30  -5.00  10.00  39.00   62.00
 48.00   -5.80  -5.00  20.00 103.00  124.00
 49.00   -7.20  -5.00  10.00  47.00   65.00
 50.00   -2.20  -6.30  10.00 117.00  135.00
 51.00   -1.40  -7.50  20.00   7.00   31.00
 52.00   -0.70  -8.80  10.00 158.00  187.00
 53.00    3.30  -4.30  10.00  50.00   73.00
 54.00    5.30  -0.80  10.00  38.00   53.00
 55.00    2.20  -6.30  10.00 115.00  134.00
 56.00    1.40  -7.50  20.00  61.00   83.00
 57.00    0.70  -8.80  10.00 140.00  161.00
 58.00    4.30  -5.00  10.00  36.00   61.00
 59.00    5.80  -5.00  20.00  35.00   63.00
 60.00    7.20  -5.00  10.00  60.00   81.00
 61.00    7.20   0.00  40.00 107.00  133.00
 62.00    3.60   6.30  40.00 186.00  207.00
 63.00   -3.60   6.30  40.00 115.00  133.00
 64.00   -7.20   0.00  40.00 165.00  190.00
 65.00   -3.60  -6.30  40.00 155.00  171.00
 66.00    3.60  -6.30  40.00  22.00   47.00
 67.00   10.80   6.30  40.00  16.00   35.00
 68.00    0.00  12.50  40.00 162.00  180.00
 69.00  -10.80   6.30  40.00 179.00  196.00
 70.00  -10.80  -6.30  40.00 106.00  126.00
 71.00    0.00 -12.50  40.00 139.00  167.00
 72.00   10.80  -6.30  40.00  71.00  100.00
 73.00    6.70   0.90  10.00 173.00  202.00
 74.00    4.10   5.30  10.00 167.00  196.00
 75.00    8.10  -1.60  10.00 128.00  149.00
 76.00    9.00  -3.10  20.00  33.00   56.00
 77.00    9.90  -4.70  10.00  72.00   88.00
 78.00    8.10   1.60  10.00  75.00   91.00
 79.00    9.00   3.10  20.00  60.00   75.00
 80.00    9.90   4.70  10.00 103.00  121.00
 81.00    2.50   6.30  10.00  81.00  101.00
 82.00   -2.50   6.30  10.00  18.00   33.00
 83.00    5.40   6.30  10.00  26.00   43.00
 84.00    7.20   6.30  20.00  17.00   41.00
 85.00    9.00   6.30  10.00  38.00   66.00
 86.00    2.70   7.80  10.00 167.00  183.00
 87.00    1.80   9.40  20.00  61.00   87.00
 88.00    0.90  10.90  10.00 137.00  165.00
 89.00   -4.10   5.30  10.00  88.00  117.00
 90.00   -6.70   0.90  10.00 138.00  159.00
 91.00   -2.70   7.80  10.00 156.00  171.00
 92.00   -1.80   9.40  20.00 154.00  178.00
 93.00   -0.90  10.90  10.00  24.00   42.00
 94.00   -5.40   6.30  10.00 118.00  138.00
 95.00   -7.20   6.30  20.00  40.00   56.00
 96.00   -9.00   6.30  10.00 116.00  144.00
 97.00   -6.70  -0.90  10.00  98.00  126.00
 98.00   -4.10  -5.30  10.00 105.00  127.00
 99.00   -8.10   1.60  10.00 103.00  127.00
100.00   -9.00   3.10  20.00  48.00   76.00
101.00   -9.90   4.70  10.00  42.00   68.00
102.00   -8.10  -1.60  10.00  83.00   99.00
103.00   -9.00  -3.10  20.00  94.00  114.00
104.00   -9.90  -4.70  10.00 166.00  185.00
105.00   -2.50  -6.30  10.00  93.00  115.00
106.00    2.50  -6.30  10.00  73.00   93.00
107.00   -5.40  -6.30  10.00 192.00  209.00
108.00   -7.20  -6.30  20.00 186.00  206.00
109.00   -9.00  -6.30  10.00  77.00   96.00
110.00   -2.70  -7.80  10.00  79.00  107.00
111.00   -1.80  -9.40  20.00  53.00   80.00
112.00   -0.90 -10.90  10.00  90.00  120.00
113.00    4.10  -5.30  10.00 100.00  125.00
114.00    6.70  -0.90  10.00 101.00  130.00
115.00    2.70  -7.80  10.00  74.00  102.00
116.00    1.80  -9.40  20.00 115.00  131.00
117.00    0.90 -10.90  10.00  84.00  106.00
118.00    5.40  -6.30  10.00 122.00  142.00
119.00    7.20  -6.30  20.00  99.00  123.00
120.00    9.00  -6.30  10.00  37.00   63.00
121.00    9.00   0.00  40.00 179.00  194.00
122.00    4.50   7.80  40.00  60.00   85.00
123.00   -4.50   7.80  40.00  65.00   85.00
124.00   -9.00   0.00  40.00 138.00  164.00
125.00   -4.50  -7.80  40.00  32.00   48.00
126.00    4.50  -7.80  40.00 132.00  151.00
127.00   13.50   7.80  40.00 150.00  165.00
128.00    0.00  15.60  40.00  52.00   81.00
129.00  -13.50   7.80  40.00  96.00  124.00
130.00  -13.50  -7.80  40.00 123.00  148.00
131.00    0.00 -15.60  40.00  54.00   69.00
132.00   13.50  -7.80  40.00 110.00  136.00
133.00    8.30   1.20  10.00 123.00  145.00
134.00    5.20   6.60  10.00  58.00   82.00
135.00   10.10  -2.00  10.00 156.00  185.00
136.00   11.30  -3.90  20.00  25.00   50.00
137.00   12.40  -5.90  10.00 126.00  141.00
138.00   10.10   2.00  10.00 146.00  170.00
139.00   11.30   3.90  20.00  59.00   87.00
140.00   12.40   5.90  10.00 140.00  155.00
141.00    3.20   7.80  10.00 102.00  117.00
142.00   -3.20   7.80  10.00  83.00  100.00
143.00    6.80   7.80  10.00 147.00  162.00
144.00    9.00   7.80  20.00  24.00   49.00
145.00   11.30   7.80  10.00  94.00  121.00
146.00    3.40   9.80  10.00  31.00   54.00
147.00    2.30  11.70  20.00  33.00   51.00
148.00    1.10  13.70  10.00  79.00   99.00
149.00   -5.20   6.60  10.00 180.00  206.00
150.00   -8.30   1.20  10.00  52.00   80.00
151.00   -3.40   9.80  10.00 174.00  202.00
152.00   -2.30  11.70  20.00  14.00   31.00
153.00   -1.10  13.70  10.00  58.00   73.00
154.00   -6.80   7.80  10.00 135.00  150.00
155.00   -9.00   7.80  20.00  34.00   64.00
156.00  -11.30   7.80  10.00 158.00  186.00
157.00   -8.30  -1.20  10.00  20.00   39.00
158.00   -5.20  -6.60  10.00 161.00  181.00
159.00  -10.10   2.00  10.00  95.00  117.00
160.00  -11.30   3.90  20.00  10.00   40.00
161.00  -12.40   5.90  10.00  54.00   82.00
162.00  -10.10  -2.00  10.00 177.00  207.00
163.00  -11.30  -3.90  20.00 156.00  176.00
164.00  -12.40  -5.90  10.00  83.00  113.00
165.00   -3.20  -7.80  10.00 164.00  192.00
166.00    3.20  -7.80  10.00 142.00  157.00
167.00   -6.80  -7.80  10.00  69.00   93.00
168.00   -9.00  -7.80  20.00  44.00   62.00
169.00  -11.30  -7.80  10.00  47.00   74.00
170.00   -3.40  -9.80  10.00 111.00  132.00
171.00   -2.30 -11.70  20.00 126.00  153.00
172.00   -1.10 -13.70  10.00 136.00  164.00
173.00    5.20  -6.60  10.00 131.00  152.00
174.00    8.30  -1.20  10.00  97.00  117.00
175.00    3.40  -9.80  10.00  69.00   90.00
176.00    2.30 -11.70  20.00  39.00   60.00
177.00    1.10 -13.70  10.00  96.00  120.00
178.00    6.80  -7.80  10.00 168.00  195.00
179.00    9.00  -7.80  20.00 119.00  136.00
180.00   11.30  -7.80  10.00 142.00  169.00
181.00   11.30   0.00  40.00  47.00   64.00
182.00    5.60   9.80  40.00 173.00  190.00
183.00   -5.60   9.80  40.00 125.00  148.00
184.00  -11.30   0.00  40.00 167.00  189.00
185.00   -5.60  -9.80  40.00 181.00  199.00
186.00    5.60  -9.80  40.00 148.00  171.00
187.00   16.90   9.80  40.00  32.00   51.00
188.00    0.00  19.50  40.00  59.00   77.00
189.00  -16.90   9.80  40.00 102.00  131.00
190.00  -16.90  -9.80  40.00 178.00  208.00
191.00    0.00 -19.50  40.00 135.00  153.00
192.00   16.90  -9.80  40.00  87.00  107.00
193.00   10.40   1.50  10.00 115.00  141.00
194.00    6.50   8.30  10.00  69.00   90.00
195.00   12.70  -2.40  10.00  66.00   87.00
196.00   14.10  -4.90  20.00 148.00  164.00
197.00   15.50  -7.30  10.00 177.00  201.00
198.00   12.70   2.40  10.00  77.00   92.00
199.00   14.10   4.90  20.00 110.00  135.00
200.00   15.50   7.30  10.00  70.00   91.00
201.00    3.90   9.80  10.00  92.00  112.00
202.00   -3.90   9.80  10.00  60.00   89.00
203.00    8.50   9.80  10.00  80.00  102.00
204.00   11.30   9.80  20.00 157.00  176.00
205.00   14.10   9.80  10.00  43.00   69.00
206.00    4.20  12.20  10.00  41.00   71.00
207.00    2.80  14.60  20.00  11.00   36.00
208.00    1.40  17.10  10.00 142.00  170.00
209.00   -6.50   8.30  10.00 181.00  197.00
210.00  -10.40   1.50  10.00  65.00   91.00
211.00   -4.20  12.20  10.00  82.00  108.00
212.00   -2.80  14.60  20.00  46.00   73.00
213.00   -1.40  17.10  10.00 116.00  143.00
214.00   -8.50   9.80  10.00 146.00  173.00
215.00  -11.30   9.80  20.00 176.00  192.00
216.00  -14.10   9.80  10.00 142.00  159.00
217.00  -10.40  -1.50  10.00 146.00  165.00
218.00   -6.50  -8.30  10.00 173.00  193.00
219.00  -12.70   2.40  10.00  17.00   33.00
220.00  -14.10   4.90  20.00  48.00   72.00
221.00  -15.50   7.30  10.00  99.00  122.00
222.00  -12.70  -2.40  10.00  49.00   79.00
223.00  -14.10  -4.90  20.00 184.00  199.00
224.00  -15.50  -7.30  10.00  25.00   51.00
225.00   -3.90  -9.80  10.00 105.00  131.00
226.00    3.90  -9.80  10.00 146.00  164.00
227.00   -8.50  -9.80  10.00 182.00  205.00
228.00  -11.30  -9.80  20.00 108.00  134.00
229.00  -14.10  -9.80  10.00 180.00  207.00
230.00   -4.20 -12.20  10.00  39.00   59.00
231.00   -2.80 -14.60  20.00  90.00  114.00
232.00   -1.40 -17.10  10.00  26.00   54.00
233.00    6.50  -8.30  10.00 119.00  140.00
234.00   10.40  -1.50  10.00 176.00  197.00
235.00    4.20 -12.20  10.00   9.00   36.00
236.00    2.80 -14.60  20.00 150.00  180.00
237.00    1.40 -17.10  10.00 117.00  140.00
238.00    8.50  -9.80  10.00  74.00  102.00
239.00   11.30  -9.80  20.00  10.00   39.00
240.00   14.10  -9.80  10.00  58.00   82.00
Node - number of items - h - w for each item
    0   0
    1   1    1    1
    2   1    1    1
    3   1    1    1
    4   1    1    1
    5   1    1    1
    6   1    1    1
    7   1    1    1
    8   1    1    1
    9   1    1    1
   10   1    1    1
   11   1    1    1
   12   1    1    1
   13   1    1    1
   14   1    1    1
   15   1    1    1
   16   1    1    1
   17   1    1    1
   18   1    1    1
   19   1    1    1
   20   1    1    1
   21   1    1    1
   22   1    1    1
   23   1    1    1
   24   1    1    1
   25   1    1    1
   26   1    1    1
   27   1    1    1
   28   1    1    1
   29   1    1    1
   30   1    1    1
   31   1    1    1
   32   1    1    1
   33   1    1    1
   34   1    1    1
   35   1    1    1
   36   1    1    1
   37   1    1    1
   38   1    1    1
   39   1    1    1
   40   1    1    1
   41   1    1    1
   42   1    1    1
   43   1    1    1
   44   1    1    1
   45   1    1    1
   46   1    1    1
   47   1    1    1
   48   1    1    1
   49   1    1    1
   50   1    1    1
   51   1    1    1
   52   1    1    1
   53   1    1    1
   54   1    1    1
   55   1    1    1
   56   1    1    1
   57   1    1    1
   58   1    1    1
   59   1    1    1
   60   1    1    1
   61   1    1    1
   62   1    1    1
   63   1    1    1
   64   1    1    1
   65   1    1    1
   66   1    1    1
   67   1    1    1
   68   1    1    1
   69   1    1    1
   70   1    1    1
   71   1    1    1
   72   1    1    1
   73   1    1    1
   74   1    1    1
   75   1    1    1
   76   1    1    1
   77   1    1    1
   78   1    1    1
   79   1    1    1
   80   1    1    1
   81   1    1    1
   82   1    1    1
   83   1    1    1
   84   1    1    1
   85   1    1    1
   86   1    1    1
   87   1    1    1
   88   1    1    1
   89   1    1    1
   90   1    1    1
   91   1    1    1
   92   1    1    1
   93   1    1    1
   94   1    1    1
   95   1    1    1
   96   1    1    1
   97   1    1    1
   98   1    1    1
   99   1    1    1
  100   1    1    1
  101   1    1    1
  102   1    1    1
  103   1    1    1
  104   1    1    1
  105   1    1    1
  106   1    1    1
  107   1    1    1
  108   1    1    1
  109   1    1    1
  110   1    1    1
  111   1    1    1
  112   1    1    1
  113   1    1    1
  114   1    1    1
  115   1    1    1
  116   1    1    1
  117   1    1    1
  118   1    1    1
  119   1    1    1
  120   1    1    1
  121   1    1    1
  122   1    1    1
  123   1    1    1
  124   1    1    1
  125   1    1    1
  126   1    1    1
  127   1    1    1
  128   1    1    1
  129   1    1    1
  130   1    1    1
  131   1    1    1
  132   1    1    1
  133   1    1    1
  134   1    1    1
  135   1    1    1
  136   1    1    1
  137   1    1    1
  138   1    1    1
  139   1    1    1
  140   1    1    1
  141   1    1    1
  142   1    1    1
  143   1    1    1
  144   1    1    1
  145   1    1    1
  146   1    1    1
  147   1    1    1
  148   1    1    1
  149   1    1    1
  150   1    1    1
  151   1    1    1
  152   1    1    1
  153   1    1    1
  154   1    1    1
  155   1    1    1
  156   1    1    1
  157   1    1    1
  158   1    1    1
  159   1    1    1
  160   1    1    1
  161   1    1    1
  162   1    1    1
  163   1    1    1
  164   1    1    1
  165   1    1    1
  166   1    1    1
  167   1    1    1
  168   1    1    1
  169   1    1    1
  170   1    1    1
  171   1    1    1
  172   1    1    1
  173   1    1    1
  174   1    1    1
  175   1    1    1
  176   1    1    1
  177   1    1    1
  178   1    1    1
  179   1    1    1
  180   1    1    1
  181   1    1    1
  182   1    1    1
  183   1    1    1
  184   1    1    1
  185   1    1    1
  186   1    1    1
  187   1    1    1
  188   1    1    1
  189   1    1    1
  190   1    1    1
  191   1    1    1
  192   1    1    1
  193   1    1    1
  194   1    1    1
  195   1    1    1
  196   1    1    1
  197   1    1    1
  198   1    1    1
  199   1    1    1
  200   1    1    1
  201   1    1    1
  202   1    1    1
  203   1    1    1
  204   1    1    1
  205   1    1    1
  206   1    1    1
  207   1    1    1
  208   1    1    1
  209   1    1    1
  210   1    1    1
  211   1    1    1
  212   1    1    1
  213   1    1    1
  214   1    1    1
  215   1    1    1
  216   1    1    1
  217   1    1    1
  218   1    1    1
  219   1    1    1
  220   1    1    1
  221   1    1    1
  222   1    1    1
  223   1    1    1
  224   1    1    1
  225   1    1    1
  226   1    1    1
  227   1    1    1
  228   1    1    1
  229   1    1    1
  230   1    1    1
  231   1    1    1
  232   1    1    1
  233   1    1    1
  234   1    1    1
  235   1    1    1
  236   1    1    1
  237   1    1    1
  238   1    1    1
  239   1    1    1
  240   1    1    1

